c User generated cnf file
p cnf 9 41
7 -4 2 0 
8 -8 3 0 
-9 4 3 0 
1 -1 4 0 
9 9 -2 0 
1 9 -9 0 
1 -9 3 0 
3 -6 7 0 
6 7 -8 0 
7 8 -4 0 
-5 6 2 0 
2 6 -3 0 
-1 7 3 0 
5 9 -8 0 
5 5 -8 0 
4 -9 5 0 
2 6 -6 0 
1 7 -1 0 
2 -3 2 0 
3 -6 5 0 
-7 5 1 0 
2 -7 4 0 
-9 1 8 0 
-7 9 6 0 
-9 7 4 0 
4 1 -6 0 
5 -7 1 0 
4 -9 9 0 
9 1 -6 0 
4 -9 2 0 
4 -3 1 0 
6 -1 8 0 
7 -9 9 0 
-7 1 5 0 
2 -9 3 0 
4 -5 1 0 
-4 9 4 0 
4 -3 8 0 
8 -4 5 0 
-5 7 2 0 
-4 6 2 0 
